Maximize
  0.00960089034905872 Z_613_1_0 + 0.0154933942797022 Z_613_1_1
   + 0.3241983656008973 Z_613_1_2 + 0.0193282253548978 Z_613_1_3
   + 0.0991832192080487 Z_613_0_0 + 0.3316893512961183 Z_613_0_1
   + 0.1319161451725027 Z_613_0_2 + 0.00890691780687986 Z_613_0_3
   + 0.0883206075903554 Z_613_3_0 + 0.3722901704516757 Z_613_3_1
   + 0.0125339941899295 Z_613_3_2 + 0.0503323034833538 Z_613_3_3
   + 0.00960089034905872 Z_613_2_0 + 0.0154933942797022 Z_613_2_1
   + 0.3241983656008973 Z_613_2_2 + 0.0193282253548978 Z_613_2_3
   + 0.0495840129062656 Z_613_5_0 + 0.3916479266353687 Z_613_5_1
   + 0.021372410711287 Z_613_5_2 + 0.1983603586434272 Z_613_5_3
   + 0.2451114196372739 Z_613_9_0 + 0.4166504254229828 Z_613_9_1
   + 0.0386871367302293 Z_613_9_2 + 0.0022408333440868 Z_613_9_3
   + 9.3306546728101354e-04 Z_613_4_0 + 0.0443924822373622 Z_613_4_1
   + 0.1291428244825905 Z_613_4_2 + 0.00500069091791581 Z_613_4_3
   + 0.00658927554183845 Z_613_6_0 + 0.0410962199381104 Z_613_6_1
   + 0.5093254817371907 Z_613_6_2 + 0.0230221846756115 Z_613_6_3
   + 0.0219559656610212 Z_613_8_0 + 0.2199586577803974 Z_613_8_1
   + 0.2536109585493405 Z_613_8_2 + 0.0285137227889729 Z_613_8_3
   + 0.0219559656610212 Z_613_7_0 + 0.2199586577803974 Z_613_7_1
   + 0.2536109585493405 Z_613_7_2 + 0.0285137227889729 Z_613_7_3
   + 0.0265482340747823 Z_655_0_0 + 0.0475407498262818 Z_655_0_1
   + 0.1150674007205285 Z_655_0_2 + 0.0202007462477927 Z_655_0_3
   + 0.0019111154466158 Z_342_0_0 + 0.0135436275850809 Z_342_0_1
   + 0.8483567279186409 Z_342_0_2 + 0.0201694140193048 Z_342_0_3
   + 0.0934796803524017 Z_78_0_0 + 0.0452183732322307 Z_78_0_1
   + 0.0490785164958399 Z_78_0_2 + 0.0398687860657999 Z_78_0_3
   + 0.4427141161292479 Z_586_0_0 + 0.3866716923790025 Z_586_0_1
   + 0.00320476 Z_586_0_2 + 0.1938542033346159 Z_586_0_3
   + 0.0110099473534335 Z_281_0_0 + 0.5691461189503446 Z_281_0_1
   + 0.0590895977512464 Z_281_0_2 + 0.0342212314560659 Z_281_0_3
   + 7.777325072448549e-04 Z_609_0_0 + 0.0103514415527921 Z_609_0_1
   + 0.6480227284669279 Z_609_0_2 + 0.0126298515911261 Z_609_0_3 + [
   0.0163001421387539 Z_613_5_0 * Z_655_0_0
   + 0.0163001421387539 Z_613_5_1 * Z_655_0_1
   + 0.0163001421387539 Z_613_5_2 * Z_655_0_2
   + 0.0163001421387539 Z_613_5_3 * Z_655_0_3
   + 6.6403880919936966e-04 Z_613_9_0 * Z_609_0_0
   + 6.6403880919936966e-04 Z_613_9_1 * Z_609_0_1
   + 6.6403880919936966e-04 Z_613_9_2 * Z_609_0_2
   + 6.6403880919936966e-04 Z_613_9_3 * Z_609_0_3
   + 1.11979e-05 Z_613_4_0 * Z_609_0_0 + 1.11979e-05 Z_613_4_1 * Z_609_0_1
   + 1.11979e-05 Z_613_4_2 * Z_609_0_2 + 1.11979e-05 Z_613_4_3 * Z_609_0_3
   + 0.0499495490272766 Z_613_6_0 * Z_655_0_0
   + 0.0318056985811922 Z_613_6_0 * Z_586_0_0
   + 3.93282e-06 Z_613_6_0 * Z_609_0_0
   + 0.0499495490272766 Z_613_6_1 * Z_655_0_1
   + 0.0318056985811922 Z_613_6_1 * Z_586_0_1
   + 3.93282e-06 Z_613_6_1 * Z_609_0_1
   + 0.0499495490272766 Z_613_6_2 * Z_655_0_2
   + 0.0318056985811922 Z_613_6_2 * Z_586_0_2
   + 3.93282e-06 Z_613_6_2 * Z_609_0_2
   + 0.0499495490272766 Z_613_6_3 * Z_655_0_3
   + 0.0318056985811922 Z_613_6_3 * Z_586_0_3
   + 3.93282e-06 Z_613_6_3 * Z_609_0_3
   + 2.7286547514381563e-04 Z_613_7_0 * Z_609_0_0
   + 2.7286547514381563e-04 Z_613_7_1 * Z_609_0_1
   + 2.7286547514381563e-04 Z_613_7_2 * Z_609_0_2
   + 2.7286547514381563e-04 Z_613_7_3 * Z_609_0_3
   + 0.1211886926405299 Z_655_0_0 * Z_78_0_0
   + 0.0308382845336833 Z_655_0_0 * Z_586_0_0
   + 5.3884767400839235e-04 Z_655_0_0 * Z_281_0_0
   + 0.1211886926405299 Z_655_0_1 * Z_78_0_1
   + 0.0308382845336833 Z_655_0_1 * Z_586_0_1
   + 5.3884767400839235e-04 Z_655_0_1 * Z_281_0_1
   + 0.1211886926405299 Z_655_0_2 * Z_78_0_2
   + 0.0308382845336833 Z_655_0_2 * Z_586_0_2
   + 5.3884767400839235e-04 Z_655_0_2 * Z_281_0_2
   + 0.1211886926405299 Z_655_0_3 * Z_78_0_3
   + 0.0308382845336833 Z_655_0_3 * Z_586_0_3
   + 5.3884767400839235e-04 Z_655_0_3 * Z_281_0_3 ] / 2 
Subject To
 constraint1_6131: Z_613_1_0 + Z_613_1_1 + Z_613_1_2 + Z_613_1_3 <= 1
 constraint1_6130: Z_613_0_0 + Z_613_0_1 + Z_613_0_2 + Z_613_0_3 <= 1
 constraint1_6133: Z_613_3_0 + Z_613_3_1 + Z_613_3_2 + Z_613_3_3 <= 1
 constraint1_6132: Z_613_2_0 + Z_613_2_1 + Z_613_2_2 + Z_613_2_3 <= 1
 constraint1_6135: Z_613_5_0 + Z_613_5_1 + Z_613_5_2 + Z_613_5_3 <= 1
 constraint1_6139: Z_613_9_0 + Z_613_9_1 + Z_613_9_2 + Z_613_9_3 <= 1
 constraint1_6134: Z_613_4_0 + Z_613_4_1 + Z_613_4_2 + Z_613_4_3 <= 1
 constraint1_6136: Z_613_6_0 + Z_613_6_1 + Z_613_6_2 + Z_613_6_3 <= 1
 constraint1_6138: Z_613_8_0 + Z_613_8_1 + Z_613_8_2 + Z_613_8_3 <= 1
 constraint1_6137: Z_613_7_0 + Z_613_7_1 + Z_613_7_2 + Z_613_7_3 <= 1
 constraint1_6550: Z_655_0_0 + Z_655_0_1 + Z_655_0_2 + Z_655_0_3 <= 1
 constraint1_3420: Z_342_0_0 + Z_342_0_1 + Z_342_0_2 + Z_342_0_3 <= 1
 constraint1_780: Z_78_0_0 + Z_78_0_1 + Z_78_0_2 + Z_78_0_3 <= 1
 constraint1_5860: Z_586_0_0 + Z_586_0_1 + Z_586_0_2 + Z_586_0_3 <= 1
 constraint1_2810: Z_281_0_0 + Z_281_0_1 + Z_281_0_2 + Z_281_0_3 <= 1
 constraint1_6090: Z_609_0_0 + Z_609_0_1 + Z_609_0_2 + Z_609_0_3 <= 1
 constraint2_6130: Z_613_1_0 + Z_613_0_0 + Z_613_3_0 + Z_613_2_0
   + Z_613_5_0 + Z_613_9_0 + Z_613_4_0 + Z_613_6_0 + Z_613_8_0 + Z_613_7_0
   <= 1
 constraint2_6131: Z_613_1_1 + Z_613_0_1 + Z_613_3_1 + Z_613_2_1
   + Z_613_5_1 + Z_613_9_1 + Z_613_4_1 + Z_613_6_1 + Z_613_8_1 + Z_613_7_1
   <= 1
 constraint2_6132: Z_613_1_2 + Z_613_0_2 + Z_613_3_2 + Z_613_2_2
   + Z_613_5_2 + Z_613_9_2 + Z_613_4_2 + Z_613_6_2 + Z_613_8_2 + Z_613_7_2
   <= 1
 constraint2_6133: Z_613_1_3 + Z_613_0_3 + Z_613_3_3 + Z_613_2_3
   + Z_613_5_3 + Z_613_9_3 + Z_613_4_3 + Z_613_6_3 + Z_613_8_3 + Z_613_7_3
   <= 1
 constraint2_6550: Z_655_0_0 <= 1
 constraint2_6551: Z_655_0_1 <= 1
 constraint2_6552: Z_655_0_2 <= 1
 constraint2_6553: Z_655_0_3 <= 1
 constraint2_3420: Z_342_0_0 <= 1
 constraint2_3421: Z_342_0_1 <= 1
 constraint2_3422: Z_342_0_2 <= 1
 constraint2_3423: Z_342_0_3 <= 1
 constraint2_780: Z_78_0_0 <= 1
 constraint2_781: Z_78_0_1 <= 1
 constraint2_782: Z_78_0_2 <= 1
 constraint2_783: Z_78_0_3 <= 1
 constraint2_5860: Z_586_0_0 <= 1
 constraint2_5861: Z_586_0_1 <= 1
 constraint2_5862: Z_586_0_2 <= 1
 constraint2_5863: Z_586_0_3 <= 1
 constraint2_2810: Z_281_0_0 <= 1
 constraint2_2811: Z_281_0_1 <= 1
 constraint2_2812: Z_281_0_2 <= 1
 constraint2_2813: Z_281_0_3 <= 1
 constraint2_6090: Z_609_0_0 <= 1
 constraint2_6091: Z_609_0_1 <= 1
 constraint2_6092: Z_609_0_2 <= 1
 constraint2_6093: Z_609_0_3 <= 1
Bounds
Binaries
 Z_613_1_0 Z_613_1_1 Z_613_1_2 Z_613_1_3 Z_613_0_0 Z_613_0_1 Z_613_0_2
 Z_613_0_3 Z_613_3_0 Z_613_3_1 Z_613_3_2 Z_613_3_3 Z_613_2_0 Z_613_2_1
 Z_613_2_2 Z_613_2_3 Z_613_5_0 Z_613_5_1 Z_613_5_2 Z_613_5_3 Z_613_9_0
 Z_613_9_1 Z_613_9_2 Z_613_9_3 Z_613_4_0 Z_613_4_1 Z_613_4_2 Z_613_4_3
 Z_613_6_0 Z_613_6_1 Z_613_6_2 Z_613_6_3 Z_613_8_0 Z_613_8_1 Z_613_8_2
 Z_613_8_3 Z_613_7_0 Z_613_7_1 Z_613_7_2 Z_613_7_3 Z_655_0_0 Z_655_0_1
 Z_655_0_2 Z_655_0_3 Z_342_0_0 Z_342_0_1 Z_342_0_2 Z_342_0_3 Z_78_0_0
 Z_78_0_1 Z_78_0_2 Z_78_0_3 Z_586_0_0 Z_586_0_1 Z_586_0_2 Z_586_0_3
 Z_281_0_0 Z_281_0_1 Z_281_0_2 Z_281_0_3 Z_609_0_0 Z_609_0_1 Z_609_0_2
 Z_609_0_3
End
